TYPE : Vertex Cover
DIMENSION: 36
EDGE_DATA_SECTION:
0 13
0 18
0 21
0 30
0 31
1 11
1 15
1 16
1 34
2 6
2 20
2 23
2 30
3 8
3 11
3 20
3 29
4 12
4 17
4 34
4 35
5 7
5 11
5 21
6 14
6 19
6 21
6 22
6 34
7 10
7 20
7 34
8 33
9 32
10 32
10 33
11 12
11 28
11 31
11 35
12 15
12 23
14 16
14 19
14 24
14 29
15 19
15 30
17 28
17 29
17 30
17 31
18 34
19 23
19 25
20 27
20 28
20 35
21 27
21 31
22 30
22 31
23 34
25 28
25 34
25 35
26 27
26 30
28 29
28 35
29 33
30 35
-1
VERTEX_DEGREE:
5.0 4.0 4.0 4.0 4.0 3.0 6.0 4.0 2.0 1.0 3.0 7.0 4.0 1.0 5.0 4.0 2.0 5.0 2.0 5.0 6.0 5.0 3.0 4.0 1.0 4.0 2.0 3.0 6.0 5.0 7.0 5.0 2.0 3.0 7.0 6.0
VERTEX_COVER:
0 1 2 3 7 11 12 14 17 19 21 22 27 28 30 32 33 34 35
EOF
